Route #1: 20 36 63 27 25 62 24 15 54 40 18 26 13 55 44 59 46 53 7 22 38 11 23 12 3 42 35 39 34 10 48 43 58 52
Route #2: 14 41 16 9 31 57 60 50 4 45 47 32 17 5
Route #3: 33 29 61 6 49 30 56
Route #4: 28 19 2 8 21 37 51
Route #5: 1
Route #6: 
Route #7: 
Route #8: 
Route #9: 
Route #10: 
cost 1591.5119063454185
